6 2
1 3
2 4
3 2
4 10
5 9
6 7
1 5
6 10
0 30 26 50 40 20 30 60
30 0 24 40 50 10 15 40
26 24 0 24 26 20 10 15
50 40 24 0 30  5 50 10 
40 50 26 30 0 20 10 30
20 10 20  5 20 0 10 30
30 15 10 50 10 10 0 20
60 40 15 10 30 30 20 0